Traveling Salesman Problem/TSP_generados/Aleatorio1620392185_16.tsp
NAME: Aleatorio1620392185_16.tsp
COMMENT: Randomly generated scenario
TYPE: TSP
DIMENSION: 16
EDGE_WEIGHT_TYPE: ATT
NODE_COORD_SECTION
1 20.82 10.42
2 27.76 49.91
3 2.04 39.53
4 45.97 32.88
5 14.29 13.74
6 3.59 44.77
7 9.73 21.68
8 27.95 21.26
9 2.35 38.91
10 42.98 23.68
11 7.56 11.25
12 49.25 9.34
13 8.94 7.09
14 3.0 1.83
15 29.55 47.08
16 16.63 26.2
