Traveling Salesman Problem/TSP_generados/Aleatorio1620392185_16.opt.tour
NAME: Aleatorio1620392185_16.opt.tour
COMMENT: Optimal solution for Aleatorio1620392185_16 (190.91223692401533)
TYPE: TOUR
DIMENSION: 16
TOUR_SECTION
1 5 13 14 11 7 16 9 3 6 2 15 4 10 12 8
-1
EOF
